c nIsolatedPIs 0
c maxPI 32
p cnf 161 388
c gate 33 11 27 0
11 -33 0
27 -33 0
-11 -27 33 0
c gate 34 10 26 0
10 -34 0
26 -34 0
-10 -26 34 0
c gate 35 -33 -34 0
-33 -35 0
-34 -35 0
33 34 35 0
c gate 36 -8 -24 0
-8 -36 0
-24 -36 0
8 24 36 0
c gate 37 -7 -23 0
-7 -37 0
-23 -37 0
7 23 37 0
c gate 38 -36 -37 0
-36 -38 0
-37 -38 0
36 37 38 0
c gate 39 9 25 0
9 -39 0
25 -39 0
-9 -25 39 0
c gate 40 8 24 0
8 -40 0
24 -40 0
-8 -24 40 0
c gate 41 -39 -40 0
-39 -41 0
-40 -41 0
39 40 41 0
c gate 42 -38 41 0
-38 -42 0
41 -42 0
38 -41 42 0
c gate 43 -9 -25 0
-9 -43 0
-25 -43 0
9 25 43 0
c gate 44 -10 -26 0
-10 -44 0
-26 -44 0
10 26 44 0
c gate 45 -43 -44 0
-43 -45 0
-44 -45 0
43 44 45 0
c gate 46 -42 45 0
-42 -46 0
45 -46 0
42 -45 46 0
c gate 47 35 -46 0
35 -47 0
-46 -47 0
-35 46 47 0
c gate 48 -11 -27 0
-11 -48 0
-27 -48 0
11 27 48 0
c gate 49 -12 -28 0
-12 -49 0
-28 -49 0
12 28 49 0
c gate 50 12 28 0
12 -50 0
28 -50 0
-12 -28 50 0
c gate 51 -49 -50 0
-49 -51 0
-50 -51 0
49 50 51 0
c gate 52 -48 51 0
-48 -52 0
51 -52 0
48 -51 52 0
c gate 53 -47 52 0
-47 -53 0
52 -53 0
47 -52 53 0
c gate 54 -2 -18 0
-2 -54 0
-18 -54 0
2 18 54 0
c gate 55 1 17 0
1 -55 0
17 -55 0
-1 -17 55 0
c gate 56 -54 55 0
-54 -56 0
55 -56 0
54 -55 56 0
c gate 57 3 19 0
3 -57 0
19 -57 0
-3 -19 57 0
c gate 58 2 18 0
2 -58 0
18 -58 0
-2 -18 58 0
c gate 59 -57 -58 0
-57 -59 0
-58 -59 0
57 58 59 0
c gate 60 -56 59 0
-56 -60 0
59 -60 0
56 -59 60 0
c gate 61 -4 -20 0
-4 -61 0
-20 -61 0
4 20 61 0
c gate 62 -3 -19 0
-3 -62 0
-19 -62 0
3 19 62 0
c gate 63 -61 -62 0
-61 -63 0
-62 -63 0
61 62 63 0
c gate 64 -60 63 0
-60 -64 0
63 -64 0
60 -63 64 0
c gate 65 4 20 0
4 -65 0
20 -65 0
-4 -20 65 0
c gate 66 5 21 0
5 -66 0
21 -66 0
-5 -21 66 0
c gate 67 -65 -66 0
-65 -67 0
-66 -67 0
65 66 67 0
c gate 68 -64 67 0
-64 -68 0
67 -68 0
64 -67 68 0
c gate 69 -6 -22 0
-6 -69 0
-22 -69 0
6 22 69 0
c gate 70 -5 -21 0
-5 -70 0
-21 -70 0
5 21 70 0
c gate 71 -69 -70 0
-69 -71 0
-70 -71 0
69 70 71 0
c gate 72 -68 71 0
-68 -72 0
71 -72 0
68 -71 72 0
c gate 73 7 -23 0
7 -73 0
-23 -73 0
-7 23 73 0
c gate 74 -7 23 0
-7 -74 0
23 -74 0
7 -23 74 0
c gate 75 -73 -74 0
-73 -75 0
-74 -75 0
73 74 75 0
c gate 76 6 22 0
6 -76 0
22 -76 0
-6 -22 76 0
c gate 77 -75 -76 0
-75 -77 0
-76 -77 0
75 76 77 0
c gate 78 -72 77 0
-72 -78 0
77 -78 0
72 -77 78 0
c gate 79 -33 -48 0
-33 -79 0
-48 -79 0
33 48 79 0
c gate 80 -10 26 0
-10 -80 0
26 -80 0
10 -26 80 0
c gate 81 -39 -43 0
-39 -81 0
-43 -81 0
39 43 81 0
c gate 82 -2 18 0
-2 -82 0
18 -82 0
2 -18 82 0
c gate 83 -1 17 0
-1 -83 0
17 -83 0
1 -17 83 0
c gate 84 -82 -83 0
-82 -84 0
-83 -84 0
82 83 84 0
c gate 85 2 -18 0
2 -85 0
-18 -85 0
-2 18 85 0
c gate 86 3 -19 0
3 -86 0
-19 -86 0
-3 19 86 0
c gate 87 -85 -86 0
-85 -87 0
-86 -87 0
85 86 87 0
c gate 88 -84 87 0
-84 -88 0
87 -88 0
84 -87 88 0
c gate 89 -4 20 0
-4 -89 0
20 -89 0
4 -20 89 0
c gate 90 -3 19 0
-3 -90 0
19 -90 0
3 -19 90 0
c gate 91 -89 -90 0
-89 -91 0
-90 -91 0
89 90 91 0
c gate 92 -88 91 0
-88 -92 0
91 -92 0
88 -91 92 0
c gate 93 5 -21 0
5 -93 0
-21 -93 0
-5 21 93 0
c gate 94 4 -20 0
4 -94 0
-20 -94 0
-4 20 94 0
c gate 95 -93 -94 0
-93 -95 0
-94 -95 0
93 94 95 0
c gate 96 -92 95 0
-92 -96 0
95 -96 0
92 -95 96 0
c gate 97 -69 -76 0
-69 -97 0
-76 -97 0
69 76 97 0
c gate 98 -5 21 0
-5 -98 0
21 -98 0
5 -21 98 0
c gate 99 -97 -98 0
-97 -99 0
-98 -99 0
97 98 99 0
c gate 100 -96 99 0
-96 -100 0
99 -100 0
96 -99 100 0
c gate 101 6 -22 0
6 -101 0
-22 -101 0
-6 22 101 0
c gate 102 -73 -101 0
-73 -102 0
-101 -102 0
73 101 102 0
c gate 103 -100 102 0
-100 -103 0
102 -103 0
100 -102 103 0
c gate 104 -36 -40 0
-36 -104 0
-40 -104 0
36 40 104 0
c gate 105 -74 -104 0
-74 -105 0
-104 -105 0
74 104 105 0
c gate 106 -103 105 0
-103 -106 0
105 -106 0
103 -105 106 0
c gate 107 -81 106 0
-81 -107 0
106 -107 0
81 -106 107 0
c gate 108 10 -26 0
10 -108 0
-26 -108 0
-10 26 108 0
c gate 109 9 -25 0
9 -109 0
-25 -109 0
-9 25 109 0
c gate 110 8 -24 0
8 -110 0
-24 -110 0
-8 24 110 0
c gate 111 -81 110 0
-81 -111 0
110 -111 0
81 -110 111 0
c gate 112 -109 -111 0
-109 -112 0
-111 -112 0
109 111 112 0
c gate 113 -108 112 0
-108 -113 0
112 -113 0
108 -112 113 0
c gate 114 -107 113 0
-107 -114 0
113 -114 0
107 -113 114 0
c gate 115 -80 -114 0
-80 -115 0
-114 -115 0
80 114 115 0
c gate 116 -79 -115 0
-79 -116 0
-115 -116 0
79 115 116 0
c gate 117 -39 104 0
-39 -117 0
104 -117 0
39 -104 117 0
c gate 118 78 117 0
78 -118 0
117 -118 0
-78 -117 118 0
c gate 119 46 -118 0
46 -119 0
-118 -119 0
-46 118 119 0
c gate 120 35 -119 0
35 -120 0
-119 -120 0
-35 119 120 0
c gate 121 52 -120 0
52 -121 0
-120 -121 0
-52 120 121 0
c gate 122 -16 -32 0
-16 -122 0
-32 -122 0
16 32 122 0
c gate 123 16 32 0
16 -123 0
32 -123 0
-16 -32 123 0
c gate 124 -122 -123 0
-122 -124 0
-123 -124 0
122 123 124 0
c gate 125 -13 -29 0
-13 -125 0
-29 -125 0
13 29 125 0
c gate 126 13 29 0
13 -126 0
29 -126 0
-13 -29 126 0
c gate 127 -125 -126 0
-125 -127 0
-126 -127 0
125 126 127 0
c gate 128 124 127 0
124 -128 0
127 -128 0
-124 -127 128 0
c gate 129 -14 -30 0
-14 -129 0
-30 -129 0
14 30 129 0
c gate 130 14 30 0
14 -130 0
30 -130 0
-14 -30 130 0
c gate 131 -129 -130 0
-129 -131 0
-130 -131 0
129 130 131 0
c gate 132 -15 -31 0
-15 -132 0
-31 -132 0
15 31 132 0
c gate 133 15 31 0
15 -133 0
31 -133 0
-15 -31 133 0
c gate 134 -132 -133 0
-132 -134 0
-133 -134 0
132 133 134 0
c gate 135 131 134 0
131 -135 0
134 -135 0
-131 -134 135 0
c gate 136 128 135 0
128 -136 0
135 -136 0
-128 -135 136 0
c gate 137 121 136 0
121 -137 0
136 -137 0
-121 -136 137 0
c gate 138 53 -137 0
53 -138 0
-137 -138 0
-53 137 138 0
c gate 139 -100 138 0
-100 -139 0
138 -139 0
100 -138 139 0
c gate 140 75 -104 0
75 -140 0
-104 -140 0
-75 104 140 0
c gate 141 100 -140 0
100 -141 0
-140 -141 0
-100 140 141 0
c gate 142 -139 -141 0
-139 -142 0
-141 -142 0
139 141 142 0
c gate 143 -106 142 0
-106 -143 0
142 -143 0
106 -142 143 0
c gate 144 -34 -44 0
-34 -144 0
-44 -144 0
34 44 144 0
c gate 145 112 144 0
112 -145 0
144 -145 0
-112 -144 145 0
c gate 146 107 -145 0
107 -146 0
-145 -146 0
-107 145 146 0
c gate 147 -143 -146 0
-143 -147 0
-146 -147 0
143 146 147 0
c gate 148 79 112 0
79 -148 0
112 -148 0
-79 -112 148 0
c gate 149 146 148 0
146 -149 0
148 -149 0
-146 -148 149 0
c gate 150 -147 -149 0
-147 -150 0
-149 -150 0
147 149 150 0
c gate 151 -116 -150 0
-116 -151 0
-150 -151 0
116 150 151 0
c gate 152 -51 -124 0
-51 -152 0
-124 -152 0
51 124 152 0
c gate 153 -127 -131 0
-127 -153 0
-131 -153 0
127 131 153 0
c gate 154 -134 153 0
-134 -154 0
153 -154 0
134 -153 154 0
c gate 155 152 154 0
152 -155 0
154 -155 0
-152 -154 155 0
c gate 156 116 155 0
116 -156 0
155 -156 0
-116 -155 156 0
c gate 157 -151 -156 0
-151 -157 0
-156 -157 0
151 156 157 0
c gate 158 78 -157 0
78 -158 0
-157 -158 0
-78 157 158 0
c gate 159 -53 158 0
-53 -159 0
158 -159 0
53 -158 159 0
c gate 160 53 157 0
53 -160 0
157 -160 0
-53 -157 160 0
c gate 161 -159 -160 0
-159 -161 0
-160 -161 0
159 160 161 0
c PO
-161 0
